\ENCODING=ISO-8859-1
\Problem name: IloCplex

Minimize
 obj1: 0.06 x1 + 0.01 x2 + 0.04 x3 + 0.09 x4 + 0.03 x5
Subject To
 c1: 0.1 x1 + 0.07 x2 + 0.03 x3 + 0.02 x4 >= 42.4
 c2: 0.2 x1 + 0.04 x2 + 0.15 x5 >= 42.4
 c3: 0.05 x2 + 0.08 x4 + 0.02 x5 >= 42.4
End
